p cnf 25 40
-23 -5 8 0
22 -9 -24 0
-10 -24 -19 0
-18 -15 -5 0
21 12 -17 0
-4 -23 -8 0
-3 -21 -10 0
21 3 1 0
-7 -11 23 0
13 16 -15 0
-6 22 15 0
-17 1 5 0
-1 8 9 0
-13 7 -5 0
2 -13 12 0
5 25 9 0
-14 -3 16 0
-23 6 18 0
-1 -21 17 0
-16 -10 -1 0
-19 -16 14 0
-8 22 -15 0
-20 -12 18 0
-11 23 -7 0
-14 -11 13 0
13 12 17 0
8 -14 11 0
-22 -25 3 0
-8 -4 -15 0
4 22 -12 0
-18 6 -9 0
-5 -9 -10 0
25 -15 -1 0
6 8 -2 0
21 13 -7 0
24 12 -6 0
25 -3 5 0
7 -11 20 0
-12 -17 19 0
-2 -4 15 0
